0
0
16
0
0
24
0
14
17
0
12
16
0
6
15
0
13
20
0
0
0
26
0
0
0
0
0
0
0
0
0
5
8
23
6
0
0
26
21
0
0
0
12
11
12
23
12
17
23
11
21
11
6
0
19
7
18
17
0
6
0
11
0
9
0
0
31
14
0
16
0
10
16
20
19
8
27
7
0
0
0
0
12
58
12
0
0
0
13
21
12
21
10
0
7
0
0
0
34
0
